
Begin Projections
c=0.0,0.0,0.0:l=0;l=1;l=2   !  1  Pt
c=0.0,1.972000005,1.972000005:l=0;l=1;l=2   !  2  Pt
c=1.972000005,0.0,1.972000005:l=0;l=1;l=2   !  3  Pt
c=1.972000005,1.972000005,0.0:l=0;l=1;l=2   !  4  Pt
End Projections

dis_win_min=0.32314999999999994
dis_win_max=36.58885000000351
write_hr=true
guiding_centres = .true.
dis_froz_min=8.80301246
dis_froz_max=11.80301246

# This part was generated automatically by VASP
num_bands = 240
num_wann = 36
begin unit_cell_cart
     3.9440000     0.0000000     0.0000000
     0.0000000     3.9440000     0.0000000
     0.0000000     0.0000000     3.9440000
end unit_cell_cart
begin atoms_cart
Pt       0.0000000     0.0000000     0.0000000
Pt       0.0000000     1.9720000     1.9720000
Pt       1.9720000     0.0000000     1.9720000
Pt       1.9720000     1.9720000     0.0000000
end atoms_cart
mp_grid =     8     8     8
begin kpoints
      0.000000000000      0.000000000000      0.000000000000
      0.125000000000      0.000000000000      0.000000000000
      0.250000000000      0.000000000000      0.000000000000
      0.375000000000      0.000000000000      0.000000000000
      0.500000000000      0.000000000000      0.000000000000
      0.125000000000      0.125000000000      0.000000000000
      0.250000000000      0.125000000000      0.000000000000
      0.375000000000      0.125000000000      0.000000000000
      0.500000000000      0.125000000000      0.000000000000
      0.250000000000      0.250000000000      0.000000000000
      0.375000000000      0.250000000000      0.000000000000
      0.500000000000      0.250000000000      0.000000000000
      0.375000000000      0.375000000000      0.000000000000
      0.500000000000      0.375000000000      0.000000000000
      0.500000000000      0.500000000000      0.000000000000
      0.125000000000      0.125000000000      0.125000000000
      0.250000000000      0.125000000000      0.125000000000
      0.375000000000      0.125000000000      0.125000000000
      0.500000000000      0.125000000000      0.125000000000
      0.250000000000      0.250000000000      0.125000000000
      0.375000000000      0.250000000000      0.125000000000
      0.500000000000      0.250000000000      0.125000000000
      0.375000000000      0.375000000000      0.125000000000
      0.500000000000      0.375000000000      0.125000000000
      0.500000000000      0.500000000000      0.125000000000
      0.250000000000      0.250000000000      0.250000000000
      0.375000000000      0.250000000000      0.250000000000
      0.500000000000      0.250000000000      0.250000000000
      0.375000000000      0.375000000000      0.250000000000
      0.500000000000      0.375000000000      0.250000000000
      0.500000000000      0.500000000000      0.250000000000
      0.375000000000      0.375000000000      0.375000000000
      0.500000000000      0.375000000000      0.375000000000
      0.500000000000      0.500000000000      0.375000000000
      0.500000000000      0.500000000000      0.500000000000
     -0.125000000000      0.000000000000      0.000000000000
      0.000000000000      0.125000000000      0.000000000000
      0.000000000000     -0.125000000000      0.000000000000
      0.000000000000      0.000000000000      0.125000000000
      0.000000000000      0.000000000000     -0.125000000000
     -0.250000000000      0.000000000000      0.000000000000
      0.000000000000      0.250000000000      0.000000000000
      0.000000000000     -0.250000000000      0.000000000000
      0.000000000000      0.000000000000      0.250000000000
      0.000000000000      0.000000000000     -0.250000000000
     -0.375000000000      0.000000000000      0.000000000000
      0.000000000000      0.375000000000      0.000000000000
      0.000000000000     -0.375000000000      0.000000000000
      0.000000000000      0.000000000000      0.375000000000
      0.000000000000      0.000000000000     -0.375000000000
      0.000000000000      0.500000000000      0.000000000000
      0.000000000000      0.000000000000      0.500000000000
     -0.125000000000     -0.125000000000      0.000000000000
      0.000000000000      0.125000000000      0.125000000000
      0.000000000000     -0.125000000000     -0.125000000000
      0.125000000000      0.000000000000      0.125000000000
     -0.125000000000      0.000000000000     -0.125000000000
     -0.125000000000      0.125000000000      0.000000000000
      0.125000000000     -0.125000000000      0.000000000000
     -0.125000000000      0.000000000000      0.125000000000
      0.125000000000      0.000000000000     -0.125000000000
      0.000000000000     -0.125000000000      0.125000000000
      0.000000000000      0.125000000000     -0.125000000000
     -0.250000000000     -0.125000000000      0.000000000000
      0.000000000000      0.250000000000      0.125000000000
      0.000000000000     -0.250000000000     -0.125000000000
      0.125000000000      0.000000000000      0.250000000000
     -0.125000000000      0.000000000000     -0.250000000000
     -0.125000000000      0.250000000000      0.000000000000
      0.125000000000     -0.250000000000      0.000000000000
     -0.250000000000      0.000000000000      0.125000000000
      0.250000000000      0.000000000000     -0.125000000000
      0.000000000000      0.125000000000      0.250000000000
      0.000000000000     -0.125000000000     -0.250000000000
      0.000000000000     -0.250000000000      0.125000000000
      0.000000000000      0.250000000000     -0.125000000000
     -0.125000000000      0.000000000000      0.250000000000
      0.125000000000      0.000000000000     -0.250000000000
      0.250000000000      0.000000000000      0.125000000000
     -0.250000000000      0.000000000000     -0.125000000000
      0.000000000000     -0.125000000000      0.250000000000
      0.000000000000      0.125000000000     -0.250000000000
      0.250000000000     -0.125000000000      0.000000000000
     -0.250000000000      0.125000000000      0.000000000000
      0.125000000000      0.250000000000      0.000000000000
     -0.125000000000     -0.250000000000      0.000000000000
     -0.375000000000     -0.125000000000      0.000000000000
      0.000000000000      0.375000000000      0.125000000000
      0.000000000000     -0.375000000000     -0.125000000000
      0.125000000000      0.000000000000      0.375000000000
     -0.125000000000      0.000000000000     -0.375000000000
     -0.125000000000      0.375000000000      0.000000000000
      0.125000000000     -0.375000000000      0.000000000000
     -0.375000000000      0.000000000000      0.125000000000
      0.375000000000      0.000000000000     -0.125000000000
      0.000000000000      0.125000000000      0.375000000000
      0.000000000000     -0.125000000000     -0.375000000000
      0.000000000000     -0.375000000000      0.125000000000
      0.000000000000      0.375000000000     -0.125000000000
     -0.125000000000      0.000000000000      0.375000000000
      0.125000000000      0.000000000000     -0.375000000000
      0.375000000000      0.000000000000      0.125000000000
     -0.375000000000      0.000000000000     -0.125000000000
      0.000000000000     -0.125000000000      0.375000000000
      0.000000000000      0.125000000000     -0.375000000000
      0.375000000000     -0.125000000000      0.000000000000
     -0.375000000000      0.125000000000      0.000000000000
      0.125000000000      0.375000000000      0.000000000000
     -0.125000000000     -0.375000000000      0.000000000000
     -0.500000000000     -0.125000000000      0.000000000000
      0.000000000000      0.500000000000      0.125000000000
      0.000000000000     -0.500000000000     -0.125000000000
      0.125000000000      0.000000000000      0.500000000000
     -0.125000000000      0.000000000000     -0.500000000000
     -0.125000000000      0.500000000000      0.000000000000
      0.125000000000     -0.500000000000      0.000000000000
     -0.500000000000      0.000000000000      0.125000000000
      0.500000000000      0.000000000000     -0.125000000000
      0.000000000000      0.125000000000      0.500000000000
      0.000000000000     -0.125000000000     -0.500000000000
     -0.250000000000     -0.250000000000      0.000000000000
      0.000000000000      0.250000000000      0.250000000000
      0.000000000000     -0.250000000000     -0.250000000000
      0.250000000000      0.000000000000      0.250000000000
     -0.250000000000      0.000000000000     -0.250000000000
     -0.250000000000      0.250000000000      0.000000000000
      0.250000000000     -0.250000000000      0.000000000000
     -0.250000000000      0.000000000000      0.250000000000
      0.250000000000      0.000000000000     -0.250000000000
      0.000000000000     -0.250000000000      0.250000000000
      0.000000000000      0.250000000000     -0.250000000000
     -0.375000000000     -0.250000000000      0.000000000000
      0.000000000000      0.375000000000      0.250000000000
      0.000000000000     -0.375000000000     -0.250000000000
      0.250000000000      0.000000000000      0.375000000000
     -0.250000000000      0.000000000000     -0.375000000000
     -0.250000000000      0.375000000000      0.000000000000
      0.250000000000     -0.375000000000      0.000000000000
     -0.375000000000      0.000000000000      0.250000000000
      0.375000000000      0.000000000000     -0.250000000000
      0.000000000000      0.250000000000      0.375000000000
      0.000000000000     -0.250000000000     -0.375000000000
      0.000000000000     -0.375000000000      0.250000000000
      0.000000000000      0.375000000000     -0.250000000000
     -0.250000000000      0.000000000000      0.375000000000
      0.250000000000      0.000000000000     -0.375000000000
      0.375000000000      0.000000000000      0.250000000000
     -0.375000000000      0.000000000000     -0.250000000000
      0.000000000000     -0.250000000000      0.375000000000
      0.000000000000      0.250000000000     -0.375000000000
      0.375000000000     -0.250000000000      0.000000000000
     -0.375000000000      0.250000000000      0.000000000000
      0.250000000000      0.375000000000      0.000000000000
     -0.250000000000     -0.375000000000      0.000000000000
     -0.500000000000     -0.250000000000      0.000000000000
      0.000000000000      0.500000000000      0.250000000000
      0.000000000000     -0.500000000000     -0.250000000000
      0.250000000000      0.000000000000      0.500000000000
     -0.250000000000      0.000000000000     -0.500000000000
     -0.250000000000      0.500000000000      0.000000000000
      0.250000000000     -0.500000000000      0.000000000000
     -0.500000000000      0.000000000000      0.250000000000
      0.500000000000      0.000000000000     -0.250000000000
      0.000000000000      0.250000000000      0.500000000000
      0.000000000000     -0.250000000000     -0.500000000000
     -0.375000000000     -0.375000000000      0.000000000000
      0.000000000000      0.375000000000      0.375000000000
      0.000000000000     -0.375000000000     -0.375000000000
      0.375000000000      0.000000000000      0.375000000000
     -0.375000000000      0.000000000000     -0.375000000000
     -0.375000000000      0.375000000000      0.000000000000
      0.375000000000     -0.375000000000      0.000000000000
     -0.375000000000      0.000000000000      0.375000000000
      0.375000000000      0.000000000000     -0.375000000000
      0.000000000000     -0.375000000000      0.375000000000
      0.000000000000      0.375000000000     -0.375000000000
     -0.500000000000     -0.375000000000      0.000000000000
      0.000000000000      0.500000000000      0.375000000000
      0.000000000000     -0.500000000000     -0.375000000000
      0.375000000000      0.000000000000      0.500000000000
     -0.375000000000      0.000000000000     -0.500000000000
     -0.375000000000      0.500000000000      0.000000000000
      0.375000000000     -0.500000000000      0.000000000000
     -0.500000000000      0.000000000000      0.375000000000
      0.500000000000      0.000000000000     -0.375000000000
      0.000000000000      0.375000000000      0.500000000000
      0.000000000000     -0.375000000000     -0.500000000000
      0.000000000000      0.500000000000      0.500000000000
      0.500000000000      0.000000000000      0.500000000000
     -0.125000000000     -0.125000000000     -0.125000000000
     -0.125000000000      0.125000000000      0.125000000000
      0.125000000000     -0.125000000000     -0.125000000000
     -0.125000000000     -0.125000000000      0.125000000000
      0.125000000000      0.125000000000     -0.125000000000
      0.125000000000     -0.125000000000      0.125000000000
     -0.125000000000      0.125000000000     -0.125000000000
     -0.250000000000     -0.125000000000     -0.125000000000
      0.125000000000      0.250000000000      0.125000000000
     -0.125000000000     -0.250000000000     -0.125000000000
      0.125000000000      0.125000000000      0.250000000000
     -0.125000000000     -0.125000000000     -0.250000000000
     -0.125000000000      0.250000000000      0.125000000000
      0.125000000000     -0.250000000000     -0.125000000000
     -0.250000000000      0.125000000000      0.125000000000
      0.250000000000     -0.125000000000     -0.125000000000
     -0.125000000000      0.125000000000      0.250000000000
      0.125000000000     -0.125000000000     -0.250000000000
     -0.250000000000     -0.125000000000      0.125000000000
      0.250000000000      0.125000000000     -0.125000000000
     -0.125000000000     -0.250000000000      0.125000000000
      0.125000000000      0.250000000000     -0.125000000000
     -0.125000000000     -0.125000000000      0.250000000000
      0.125000000000      0.125000000000     -0.250000000000
      0.125000000000     -0.250000000000      0.125000000000
     -0.125000000000      0.250000000000     -0.125000000000
      0.250000000000     -0.125000000000      0.125000000000
     -0.250000000000      0.125000000000     -0.125000000000
      0.125000000000     -0.125000000000      0.250000000000
     -0.125000000000      0.125000000000     -0.250000000000
     -0.375000000000     -0.125000000000     -0.125000000000
      0.125000000000      0.375000000000      0.125000000000
     -0.125000000000     -0.375000000000     -0.125000000000
      0.125000000000      0.125000000000      0.375000000000
     -0.125000000000     -0.125000000000     -0.375000000000
     -0.125000000000      0.375000000000      0.125000000000
      0.125000000000     -0.375000000000     -0.125000000000
     -0.375000000000      0.125000000000      0.125000000000
      0.375000000000     -0.125000000000     -0.125000000000
     -0.125000000000      0.125000000000      0.375000000000
      0.125000000000     -0.125000000000     -0.375000000000
     -0.375000000000     -0.125000000000      0.125000000000
      0.375000000000      0.125000000000     -0.125000000000
     -0.125000000000     -0.375000000000      0.125000000000
      0.125000000000      0.375000000000     -0.125000000000
     -0.125000000000     -0.125000000000      0.375000000000
      0.125000000000      0.125000000000     -0.375000000000
      0.125000000000     -0.375000000000      0.125000000000
     -0.125000000000      0.375000000000     -0.125000000000
      0.375000000000     -0.125000000000      0.125000000000
     -0.375000000000      0.125000000000     -0.125000000000
      0.125000000000     -0.125000000000      0.375000000000
     -0.125000000000      0.125000000000     -0.375000000000
     -0.500000000000     -0.125000000000     -0.125000000000
      0.125000000000      0.500000000000      0.125000000000
     -0.125000000000     -0.500000000000     -0.125000000000
      0.125000000000      0.125000000000      0.500000000000
     -0.125000000000     -0.125000000000     -0.500000000000
     -0.125000000000      0.500000000000      0.125000000000
      0.125000000000     -0.500000000000     -0.125000000000
     -0.125000000000      0.125000000000      0.500000000000
      0.125000000000     -0.125000000000     -0.500000000000
     -0.500000000000     -0.125000000000      0.125000000000
      0.500000000000      0.125000000000     -0.125000000000
     -0.250000000000     -0.250000000000     -0.125000000000
      0.125000000000      0.250000000000      0.250000000000
     -0.125000000000     -0.250000000000     -0.250000000000
      0.250000000000      0.125000000000      0.250000000000
     -0.250000000000     -0.125000000000     -0.250000000000
     -0.250000000000      0.250000000000      0.125000000000
      0.250000000000     -0.250000000000     -0.125000000000
     -0.250000000000      0.125000000000      0.250000000000
      0.250000000000     -0.125000000000     -0.250000000000
     -0.125000000000      0.250000000000      0.250000000000
      0.125000000000     -0.250000000000     -0.250000000000
     -0.250000000000     -0.250000000000      0.125000000000
      0.250000000000      0.250000000000     -0.125000000000
     -0.125000000000     -0.250000000000      0.250000000000
      0.125000000000      0.250000000000     -0.250000000000
     -0.250000000000     -0.125000000000      0.250000000000
      0.250000000000      0.125000000000     -0.250000000000
      0.250000000000     -0.250000000000      0.125000000000
     -0.250000000000      0.250000000000     -0.125000000000
      0.250000000000     -0.125000000000      0.250000000000
     -0.250000000000      0.125000000000     -0.250000000000
      0.125000000000     -0.250000000000      0.250000000000
     -0.125000000000      0.250000000000     -0.250000000000
     -0.375000000000     -0.250000000000     -0.125000000000
      0.125000000000      0.375000000000      0.250000000000
     -0.125000000000     -0.375000000000     -0.250000000000
      0.250000000000      0.125000000000      0.375000000000
     -0.250000000000     -0.125000000000     -0.375000000000
     -0.250000000000      0.375000000000      0.125000000000
      0.250000000000     -0.375000000000     -0.125000000000
     -0.375000000000      0.125000000000      0.250000000000
      0.375000000000     -0.125000000000     -0.250000000000
     -0.125000000000      0.250000000000      0.375000000000
      0.125000000000     -0.250000000000     -0.375000000000
     -0.375000000000     -0.250000000000      0.125000000000
      0.375000000000      0.250000000000     -0.125000000000
     -0.125000000000     -0.375000000000      0.250000000000
      0.125000000000      0.375000000000     -0.250000000000
     -0.250000000000     -0.125000000000      0.375000000000
      0.250000000000      0.125000000000     -0.375000000000
      0.250000000000     -0.375000000000      0.125000000000
     -0.250000000000      0.375000000000     -0.125000000000
      0.375000000000     -0.125000000000      0.250000000000
     -0.375000000000      0.125000000000     -0.250000000000
      0.125000000000     -0.250000000000      0.375000000000
     -0.125000000000      0.250000000000     -0.375000000000
      0.125000000000     -0.375000000000     -0.250000000000
     -0.125000000000      0.375000000000      0.250000000000
      0.250000000000     -0.125000000000     -0.375000000000
     -0.250000000000      0.125000000000      0.375000000000
      0.375000000000     -0.250000000000     -0.125000000000
     -0.375000000000      0.250000000000      0.125000000000
      0.125000000000      0.250000000000     -0.375000000000
     -0.125000000000     -0.250000000000      0.375000000000
      0.250000000000      0.375000000000     -0.125000000000
     -0.250000000000     -0.375000000000      0.125000000000
      0.375000000000      0.125000000000     -0.250000000000
     -0.375000000000     -0.125000000000      0.250000000000
     -0.250000000000      0.125000000000     -0.375000000000
      0.250000000000     -0.125000000000      0.375000000000
     -0.375000000000      0.250000000000     -0.125000000000
      0.375000000000     -0.250000000000      0.125000000000
     -0.125000000000      0.375000000000     -0.250000000000
      0.125000000000     -0.375000000000      0.250000000000
     -0.375000000000     -0.125000000000     -0.250000000000
      0.375000000000      0.125000000000      0.250000000000
     -0.250000000000     -0.375000000000     -0.125000000000
      0.250000000000      0.375000000000      0.125000000000
     -0.125000000000     -0.250000000000     -0.375000000000
      0.125000000000      0.250000000000      0.375000000000
     -0.500000000000     -0.250000000000     -0.125000000000
      0.125000000000      0.500000000000      0.250000000000
     -0.125000000000     -0.500000000000     -0.250000000000
      0.250000000000      0.125000000000      0.500000000000
     -0.250000000000     -0.125000000000     -0.500000000000
     -0.250000000000      0.500000000000      0.125000000000
      0.250000000000     -0.500000000000     -0.125000000000
     -0.500000000000      0.125000000000      0.250000000000
      0.500000000000     -0.125000000000     -0.250000000000
     -0.125000000000      0.250000000000      0.500000000000
      0.125000000000     -0.250000000000     -0.500000000000
     -0.500000000000     -0.250000000000      0.125000000000
      0.500000000000      0.250000000000     -0.125000000000
     -0.125000000000     -0.500000000000      0.250000000000
      0.125000000000      0.500000000000     -0.250000000000
      0.250000000000     -0.500000000000      0.125000000000
     -0.250000000000      0.500000000000     -0.125000000000
      0.500000000000     -0.125000000000      0.250000000000
     -0.500000000000      0.125000000000     -0.250000000000
      0.250000000000     -0.125000000000     -0.500000000000
     -0.250000000000      0.125000000000      0.500000000000
      0.125000000000      0.250000000000     -0.500000000000
     -0.125000000000     -0.250000000000      0.500000000000
     -0.375000000000     -0.375000000000     -0.125000000000
      0.125000000000      0.375000000000      0.375000000000
     -0.125000000000     -0.375000000000     -0.375000000000
      0.375000000000      0.125000000000      0.375000000000
     -0.375000000000     -0.125000000000     -0.375000000000
     -0.375000000000      0.375000000000      0.125000000000
      0.375000000000     -0.375000000000     -0.125000000000
     -0.375000000000      0.125000000000      0.375000000000
      0.375000000000     -0.125000000000     -0.375000000000
     -0.125000000000      0.375000000000      0.375000000000
      0.125000000000     -0.375000000000     -0.375000000000
     -0.375000000000     -0.375000000000      0.125000000000
      0.375000000000      0.375000000000     -0.125000000000
     -0.125000000000     -0.375000000000      0.375000000000
      0.125000000000      0.375000000000     -0.375000000000
     -0.375000000000     -0.125000000000      0.375000000000
      0.375000000000      0.125000000000     -0.375000000000
      0.375000000000     -0.375000000000      0.125000000000
     -0.375000000000      0.375000000000     -0.125000000000
      0.375000000000     -0.125000000000      0.375000000000
     -0.375000000000      0.125000000000     -0.375000000000
      0.125000000000     -0.375000000000      0.375000000000
     -0.125000000000      0.375000000000     -0.375000000000
     -0.500000000000     -0.375000000000     -0.125000000000
      0.125000000000      0.500000000000      0.375000000000
     -0.125000000000     -0.500000000000     -0.375000000000
      0.375000000000      0.125000000000      0.500000000000
     -0.375000000000     -0.125000000000     -0.500000000000
     -0.375000000000      0.500000000000      0.125000000000
      0.375000000000     -0.500000000000     -0.125000000000
     -0.500000000000      0.125000000000      0.375000000000
      0.500000000000     -0.125000000000     -0.375000000000
     -0.125000000000      0.375000000000      0.500000000000
      0.125000000000     -0.375000000000     -0.500000000000
     -0.500000000000     -0.375000000000      0.125000000000
      0.500000000000      0.375000000000     -0.125000000000
     -0.125000000000     -0.500000000000      0.375000000000
      0.125000000000      0.500000000000     -0.375000000000
      0.375000000000     -0.500000000000      0.125000000000
     -0.375000000000      0.500000000000     -0.125000000000
      0.500000000000     -0.125000000000      0.375000000000
     -0.500000000000      0.125000000000     -0.375000000000
      0.375000000000     -0.125000000000     -0.500000000000
     -0.375000000000      0.125000000000      0.500000000000
      0.125000000000      0.375000000000     -0.500000000000
     -0.125000000000     -0.375000000000      0.500000000000
     -0.500000000000     -0.500000000000     -0.125000000000
      0.125000000000      0.500000000000      0.500000000000
     -0.125000000000     -0.500000000000     -0.500000000000
      0.500000000000      0.125000000000      0.500000000000
     -0.500000000000     -0.125000000000     -0.500000000000
     -0.250000000000     -0.250000000000     -0.250000000000
     -0.250000000000      0.250000000000      0.250000000000
      0.250000000000     -0.250000000000     -0.250000000000
     -0.250000000000     -0.250000000000      0.250000000000
      0.250000000000      0.250000000000     -0.250000000000
      0.250000000000     -0.250000000000      0.250000000000
     -0.250000000000      0.250000000000     -0.250000000000
     -0.375000000000     -0.250000000000     -0.250000000000
      0.250000000000      0.375000000000      0.250000000000
     -0.250000000000     -0.375000000000     -0.250000000000
      0.250000000000      0.250000000000      0.375000000000
     -0.250000000000     -0.250000000000     -0.375000000000
     -0.250000000000      0.375000000000      0.250000000000
      0.250000000000     -0.375000000000     -0.250000000000
     -0.375000000000      0.250000000000      0.250000000000
      0.375000000000     -0.250000000000     -0.250000000000
     -0.250000000000      0.250000000000      0.375000000000
      0.250000000000     -0.250000000000     -0.375000000000
     -0.375000000000     -0.250000000000      0.250000000000
      0.375000000000      0.250000000000     -0.250000000000
     -0.250000000000     -0.375000000000      0.250000000000
      0.250000000000      0.375000000000     -0.250000000000
     -0.250000000000     -0.250000000000      0.375000000000
      0.250000000000      0.250000000000     -0.375000000000
      0.250000000000     -0.375000000000      0.250000000000
     -0.250000000000      0.375000000000     -0.250000000000
      0.375000000000     -0.250000000000      0.250000000000
     -0.375000000000      0.250000000000     -0.250000000000
      0.250000000000     -0.250000000000      0.375000000000
     -0.250000000000      0.250000000000     -0.375000000000
     -0.500000000000     -0.250000000000     -0.250000000000
      0.250000000000      0.500000000000      0.250000000000
     -0.250000000000     -0.500000000000     -0.250000000000
      0.250000000000      0.250000000000      0.500000000000
     -0.250000000000     -0.250000000000     -0.500000000000
     -0.250000000000      0.500000000000      0.250000000000
      0.250000000000     -0.500000000000     -0.250000000000
     -0.250000000000      0.250000000000      0.500000000000
      0.250000000000     -0.250000000000     -0.500000000000
     -0.500000000000     -0.250000000000      0.250000000000
      0.500000000000      0.250000000000     -0.250000000000
     -0.375000000000     -0.375000000000     -0.250000000000
      0.250000000000      0.375000000000      0.375000000000
     -0.250000000000     -0.375000000000     -0.375000000000
      0.375000000000      0.250000000000      0.375000000000
     -0.375000000000     -0.250000000000     -0.375000000000
     -0.375000000000      0.375000000000      0.250000000000
      0.375000000000     -0.375000000000     -0.250000000000
     -0.375000000000      0.250000000000      0.375000000000
      0.375000000000     -0.250000000000     -0.375000000000
     -0.250000000000      0.375000000000      0.375000000000
      0.250000000000     -0.375000000000     -0.375000000000
     -0.375000000000     -0.375000000000      0.250000000000
      0.375000000000      0.375000000000     -0.250000000000
     -0.250000000000     -0.375000000000      0.375000000000
      0.250000000000      0.375000000000     -0.375000000000
     -0.375000000000     -0.250000000000      0.375000000000
      0.375000000000      0.250000000000     -0.375000000000
      0.375000000000     -0.375000000000      0.250000000000
     -0.375000000000      0.375000000000     -0.250000000000
      0.375000000000     -0.250000000000      0.375000000000
     -0.375000000000      0.250000000000     -0.375000000000
      0.250000000000     -0.375000000000      0.375000000000
     -0.250000000000      0.375000000000     -0.375000000000
     -0.500000000000     -0.375000000000     -0.250000000000
      0.250000000000      0.500000000000      0.375000000000
     -0.250000000000     -0.500000000000     -0.375000000000
      0.375000000000      0.250000000000      0.500000000000
     -0.375000000000     -0.250000000000     -0.500000000000
     -0.375000000000      0.500000000000      0.250000000000
      0.375000000000     -0.500000000000     -0.250000000000
     -0.500000000000      0.250000000000      0.375000000000
      0.500000000000     -0.250000000000     -0.375000000000
     -0.250000000000      0.375000000000      0.500000000000
      0.250000000000     -0.375000000000     -0.500000000000
     -0.500000000000     -0.375000000000      0.250000000000
      0.500000000000      0.375000000000     -0.250000000000
     -0.250000000000     -0.500000000000      0.375000000000
      0.250000000000      0.500000000000     -0.375000000000
      0.375000000000     -0.500000000000      0.250000000000