 num_bands       = 2
 num_wann        = 2

!!! Disentanglement parameters !!!
 dis_froz_min     = -0.1
 dis_froz_max     =  0.1
 dis_mix_ratio    = 0.5

!!! Iterations &c. !!!
 iprint                = 1
 num_iter              = 10000
 num_print_cycles      =   100
 conv_window           = 3
!conv_tol              = 1e-10
 dis_num_iter          = 10000
!dis_conv_window       = 3
!dis_conv_tol          = 1e-10
!restart               = default ! wannierise ! plot ! transport

!!! Post-processing options !!!
 write_proj             = .true.
 write_xyz              = .true.
 translate_home_cell    = .true.
 hr_plot                = .true.
 fermi_surface_plot     = .true.
!dos                    = .false.
!dos_project            =
!dos_kmesh              = 50 50 1
!dos_energy_min         = -1.8
!dos_energy_max         = +1.5

!!! Band structure !!!
!!! needs `kpoint_path' block
!bands_plot             = .true.
 bands_num_points       = 300
!bands_plot_format      = gnuplot xmgrace
 bands_plot_project     = 1
!bands_plot_mode        = s-k | cut [Slater-Koster | truncate Hamiltonian]
 
 
begin unit_cell_cart
Bohr
   15.809981   -9.127897    0.000000
    0.000000   18.255794    0.000000
    0.000000    0.000000   13.655482
end unit_cell_cart
 
begin atoms_cart
Bohr
   1    0.00000000    0.00000000    0.00000000
   2   14.16532166    2.17390004    3.34034938
   3    6.84466788    2.05268139    3.34034938
   4   10.60997320   -4.22658143    3.34034938
   5    0.00000000    0.00000000    6.70581120
   6    5.26999374    9.12789709    6.63786152
   7   14.46626465   -2.18121130   10.18626583
   8   10.46583344    4.49086134   10.18626583
   9    6.68786464   -2.30965003   10.18626583
  10    5.26999374    9.12789709   13.45649432
  11    1.20126341    6.00411167    3.06588785
  12   10.00963643    7.16616580    3.06588785
  13    4.59908153   14.21341353    3.06588785
  14    0.75795153   12.80413935   10.29799499
  15    4.34229565    3.38223261   10.29799499
  16   10.70973419   11.19731904   10.29799499
  17   15.20122325   -1.85833020    1.12119701
  18    9.81873091    4.96591361    1.12119701
  19    6.60000858   -3.10758341    1.12119701
  20    3.98933782    6.28814444    2.21702212
  21    8.36961963    9.43869267    2.21702212
  22    3.45102392   11.65685389    2.21702212
  23   12.81870649    7.99226804    3.35177902
  24    2.47912097   16.23308845    3.35177902
  25    0.51215391    3.15833451    3.35177902
  26    0.78089182    7.37275767    5.64348298
  27    9.03454002    6.11779032    5.64348298
  28    5.99454953   13.89314301    5.64348298
  29   15.02416727    3.89997624    7.81613844
  30    4.92041924    1.93342541    7.81613844
  31   11.67537623   -5.83340165    7.81613844
  32    5.70503699    5.97934768   10.43734918
  33    7.77919588   11.07893013   10.43734918
  34    2.32574849   10.32541319   10.43734918
  35    2.51956290   15.17969280   10.46136917
  36    1.40420033    3.72005608   10.46136917
  37   11.88621814    8.48394212   10.46136917
  38   14.60705254    3.86126482   12.47101915
  39    5.16250167    1.59154916   12.47101915
  40   11.85040853   -5.45281398   12.47101915
  41   10.53998747    0.00000018    4.08283891
end atoms_cart
 
!!! BZ-Path for band structure !!!
bands_plot = T
begin kpoint_path
  G   0.00000   0.00000   0.00000    M   0.50000  -0.50000   0.00000
  M   0.50000  -0.50000   0.00000    K   0.66667  -0.33333   0.00000
  K   0.66667  -0.33333   0.00000    G   0.00000   0.00000   0.00000
  G   0.00000   0.00000   0.00000    A   0.00000   0.00000   0.50000
  A   0.00000   0.00000   0.50000    L   0.50000  -0.50000   0.50000
  L   0.50000  -0.50000   0.50000    H   0.66667  -0.33333   0.50000
  H   0.66667  -0.33333   0.50000    A   0.00000   0.00000   0.50000
end kpoint_path
 
!!!! Dummy `projections' block for guiding centres !!!
guiding_centres = T
begin projections
  10:s
  10:s
end projections
 
!!! K-Points !!!
mp_grid : 7 7 8
begin kpoints
  0.000000000000000  0.000000000000000  0.000000000000000
  0.000000000000000  0.000000000000000  0.125000000000000
  0.000000000000000  0.000000000000000  0.250000000000000
  0.000000000000000  0.000000000000000  0.375000000000000
  0.000000000000000  0.000000000000000  0.500000000000000
  0.000000000000000  0.000000000000000  0.625000000000000
  0.000000000000000  0.000000000000000  0.750000000000000
  0.000000000000000  0.000000000000000  0.875000000000000
  0.000000000000000  0.142857142857143  0.000000000000000
  0.000000000000000  0.142857142857143  0.125000000000000
  0.000000000000000  0.142857142857143  0.250000000000000
  0.000000000000000  0.142857142857143  0.375000000000000
  0.000000000000000  0.142857142857143  0.500000000000000
  0.000000000000000  0.142857142857143  0.625000000000000
  0.000000000000000  0.142857142857143  0.750000000000000
  0.000000000000000  0.142857142857143  0.875000000000000
  0.000000000000000  0.285714285714286  0.000000000000000
  0.000000000000000  0.285714285714286  0.125000000000000
  0.000000000000000  0.285714285714286  0.250000000000000
  0.000000000000000  0.285714285714286  0.375000000000000
  0.000000000000000  0.285714285714286  0.500000000000000
  0.000000000000000  0.285714285714286  0.625000000000000
  0.000000000000000  0.285714285714286  0.750000000000000
  0.000000000000000  0.285714285714286  0.875000000000000
  0.000000000000000  0.428571428571429  0.000000000000000
  0.000000000000000  0.428571428571429  0.125000000000000
  0.000000000000000  0.428571428571429  0.250000000000000
  0.000000000000000  0.428571428571429  0.375000000000000
  0.000000000000000  0.428571428571429  0.500000000000000
  0.000000000000000  0.428571428571429  0.625000000000000
  0.000000000000000  0.428571428571429  0.750000000000000
  0.000000000000000  0.428571428571429  0.875000000000000
  0.000000000000000  0.571428571428571  0.000000000000000
  0.000000000000000  0.571428571428571  0.125000000000000
  0.000000000000000  0.571428571428571  0.250000000000000
  0.000000000000000  0.571428571428571  0.375000000000000
  0.000000000000000  0.571428571428571  0.500000000000000
  0.000000000000000  0.571428571428571  0.625000000000000
  0.000000000000000  0.571428571428571  0.750000000000000
  0.000000000000000  0.571428571428571  0.875000000000000
  0.000000000000000  0.714285714285714  0.000000000000000
  0.000000000000000  0.714285714285714  0.125000000000000
  0.000000000000000  0.714285714285714  0.250000000000000
  0.000000000000000  0.714285714285714  0.375000000000000
  0.000000000000000  0.714285714285714  0.500000000000000
  0.000000000000000  0.714285714285714  0.625000000000000
  0.000000000000000  0.714285714285714  0.750000000000000
  0.000000000000000  0.714285714285714  0.875000000000000
  0.000000000000000  0.857142857142857  0.000000000000000
  0.000000000000000  0.857142857142857  0.125000000000000
  0.000000000000000  0.857142857142857  0.250000000000000
  0.000000000000000  0.857142857142857  0.375000000000000
  0.000000000000000  0.857142857142857  0.500000000000000
  0.000000000000000  0.857142857142857  0.625000000000000
  0.000000000000000  0.857142857142857  0.750000000000000
  0.000000000000000  0.857142857142857  0.875000000000000
  0.142857142857143  0.000000000000000  0.000000000000000
  0.142857142857143  0.000000000000000  0.125000000000000
  0.142857142857143  0.000000000000000  0.250000000000000
  0.142857142857143  0.000000000000000  0.375000000000000
  0.142857142857143  0.000000000000000  0.500000000000000
  0.142857142857143  0.000000000000000  0.625000000000000
  0.142857142857143  0.000000000000000  0.750000000000000
  0.142857142857143  0.000000000000000  0.875000000000000
  0.142857142857143  0.142857142857143  0.000000000000000
  0.142857142857143  0.142857142857143  0.125000000000000
  0.142857142857143  0.142857142857143  0.250000000000000
  0.142857142857143  0.142857142857143  0.375000000000000
  0.142857142857143  0.142857142857143  0.500000000000000
  0.142857142857143  0.142857142857143  0.625000000000000
  0.142857142857143  0.142857142857143  0.750000000000000
  0.142857142857143  0.142857142857143  0.875000000000000
  0.142857142857143  0.285714285714286  0.000000000000000
  0.142857142857143  0.285714285714286  0.125000000000000
  0.142857142857143  0.285714285714286  0.250000000000000
  0.142857142857143  0.285714285714286  0.375000000000000
  0.142857142857143  0.285714285714286  0.500000000000000
  0.142857142857143  0.285714285714286  0.625000000000000
  0.142857142857143  0.285714285714286  0.750000000000000
  0.142857142857143  0.285714285714286  0.875000000000000
  0.142857142857143  0.428571428571429  0.000000000000000
  0.142857142857143  0.428571428571429  0.125000000000000
  0.142857142857143  0.428571428571429  0.250000000000000
  0.142857142857143  0.428571428571429  0.375000000000000
  0.142857142857143  0.428571428571429  0.500000000000000
  0.142857142857143  0.428571428571429  0.625000000000000
  0.142857142857143  0.428571428571429  0.750000000000000
  0.142857142857143  0.428571428571429  0.875000000000000
  0.142857142857143  0.571428571428571  0.000000000000000
  0.142857142857143  0.571428571428571  0.125000000000000
  0.142857142857143  0.571428571428571  0.250000000000000
  0.142857142857143  0.571428571428571  0.375000000000000
  0.142857142857143  0.571428571428571  0.500000000000000
  0.142857142857143  0.571428571428571  0.625000000000000
  0.142857142857143  0.571428571428571  0.750000000000000
  0.142857142857143  0.571428571428571  0.875000000000000
  0.142857142857143  0.714285714285714  0.000000000000000
  0.142857142857143  0.714285714285714  0.125000000000000
  0.142857142857143  0.714285714285714  0.250000000000000
  0.142857142857143  0.714285714285714  0.375000000000000
  0.142857142857143  0.714285714285714  0.500000000000000
  0.142857142857143  0.714285714285714  0.625000000000000
  0.142857142857143  0.714285714285714  0.750000000000000
  0.142857142857143  0.714285714285714  0.875000000000000
  0.142857142857143  0.857142857142857  0.000000000000000
  0.142857142857143  0.857142857142857  0.125000000000000
  0.142857142857143  0.857142857142857  0.250000000000000
  0.142857142857143  0.857142857142857  0.375000000000000
  0.142857142857143  0.857142857142857  0.500000000000000
  0.142857142857143  0.857142857142857  0.625000000000000
  0.142857142857143  0.857142857142857  0.750000000000000
  0.142857142857143  0.857142857142857  0.875000000000000
  0.285714285714286  0.000000000000000  0.000000000000000
  0.285714285714286  0.000000000000000  0.125000000000000
  0.285714285714286  0.000000000000000  0.250000000000000
  0.285714285714286  0.000000000000000  0.375000000000000
  0.285714285714286  0.000000000000000  0.500000000000000
  0.285714285714286  0.000000000000000  0.625000000000000
  0.285714285714286  0.000000000000000  0.750000000000000
  0.285714285714286  0.000000000000000  0.875000000000000
  0.285714285714286  0.142857142857143  0.000000000000000
  0.285714285714286  0.142857142857143  0.125000000000000
  0.285714285714286  0.142857142857143  0.250000000000000
  0.285714285714286  0.142857142857143  0.375000000000000
  0.285714285714286  0.142857142857143  0.500000000000000
  0.285714285714286  0.142857142857143  0.625000000000000
  0.285714285714286  0.142857142857143  0.750000000000000
  0.285714285714286  0.142857142857143  0.875000000000000
  0.285714285714286  0.285714285714286  0.000000000000000
  0.285714285714286  0.285714285714286  0.125000000000000
  0.285714285714286  0.285714285714286  0.250000000000000
  0.285714285714286  0.285714285714286  0.375000000000000
  0.285714285714286  0.285714285714286  0.500000000000000
  0.285714285714286  0.285714285714286  0.625000000000000
  0.285714285714286  0.285714285714286  0.750000000000000
  0.285714285714286  0.285714285714286  0.875000000000000
  0.285714285714286  0.428571428571429  0.000000000000000
  0.285714285714286  0.428571428571429  0.125000000000000
  0.285714285714286  0.428571428571429  0.250000000000000
  0.285714285714286  0.428571428571429  0.375000000000000
  0.285714285714286  0.428571428571429  0.500000000000000
  0.285714285714286  0.428571428571429  0.625000000000000
  0.285714285714286  0.428571428571429  0.750000000000000
  0.285714285714286  0.428571428571429  0.875000000000000
  0.285714285714286  0.571428571428571  0.000000000000000
  0.285714285714286  0.571428571428571  0.125000000000000
  0.285714285714286  0.571428571428571  0.250000000000000
  0.285714285714286  0.571428571428571  0.375000000000000
  0.285714285714286  0.571428571428571  0.500000000000000
  0.285714285714286  0.571428571428571  0.625000000000000
  0.285714285714286  0.571428571428571  0.750000000000000
  0.285714285714286  0.571428571428571  0.875000000000000
  0.285714285714286  0.714285714285714  0.000000000000000
  0.285714285714286  0.714285714285714  0.125000000000000
  0.285714285714286  0.714285714285714  0.250000000000000
  0.285714285714286  0.714285714285714  0.375000000000000
  0.285714285714286  0.714285714285714  0.500000000000000
  0.285714285714286  0.714285714285714  0.625000000000000
  0.285714285714286  0.714285714285714  0.750000000000000
  0.285714285714286  0.714285714285714  0.875000000000000
  0.285714285714286  0.857142857142857  0.000000000000000
  0.285714285714286  0.857142857142857  0.125000000000000
  0.285714285714286  0.857142857142857  0.250000000000000
  0.285714285714286  0.857142857142857  0.375000000000000
  0.285714285714286  0.857142857142857  0.500000000000000
  0.285714285714286  0.857142857142857  0.625000000000000
  0.285714285714286  0.857142857142857  0.750000000000000
  0.285714285714286  0.857142857142857  0.875000000000000
  0.428571428571429  0.000000000000000  0.000000000000000
  0.428571428571429  0.000000000000000  0.125000000000000
  0.428571428571429  0.000000000000000  0.250000000000000
  0.428571428571429  0.000000000000000  0.375000000000000
  0.428571428571429  0.000000000000000  0.500000000000000
  0.428571428571429  0.000000000000000  0.625000000000000
  0.428571428571429  0.000000000000000  0.750000000000000
  0.428571428571429  0.000000000000000  0.875000000000000
  0.428571428571429  0.142857142857143  0.000000000000000
  0.428571428571429  0.142857142857143  0.125000000000000
  0.428571428571429  0.142857142857143  0.250000000000000
  0.428571428571429  0.142857142857143  0.375000000000000
  0.428571428571429  0.142857142857143  0.500000000000000
  0.428571428571429  0.142857142857143  0.625000000000000
  0.428571428571429  0.142857142857143  0.750000000000000
  0.428571428571429  0.142857142857143  0.875000000000000
  0.428571428571429  0.285714285714286  0.000000000000000
  0.428571428571429  0.285714285714286  0.125000000000000
  0.428571428571429  0.285714285714286  0.250000000000000
  0.428571428571429  0.285714285714286  0.375000000000000
  0.428571428571429  0.285714285714286  0.500000000000000
  0.428571428571429  0.285714285714286  0.625000000000000
  0.428571428571429  0.285714285714286  0.750000000000000
  0.428571428571429  0.285714285714286  0.875000000000000
  0.428571428571429  0.428571428571429  0.000000000000000
  0.428571428571429  0.428571428571429  0.125000000000000
  0.428571428571429  0.428571428571429  0.250000000000000
  0.428571428571429  0.428571428571429  0.375000000000000
  0.428571428571429  0.428571428571429  0.500000000000000
  0.428571428571429  0.428571428571429  0.625000000000000
  0.428571428571429  0.428571428571429  0.750000000000000
  0.428571428571429  0.428571428571429  0.875000000000000
  0.428571428571429  0.571428571428571  0.000000000000000
  0.428571428571429  0.571428571428571  0.125000000000000
  0.428571428571429  0.571428571428571  0.250000000000000
  0.428571428571429  0.571428571428571  0.375000000000000
  0.428571428571429  0.571428571428571  0.500000000000000
  0.428571428571429  0.571428571428571  0.625000000000000
  0.428571428571429  0.571428571428571  0.750000000000000
  0.428571428571429  0.571428571428571  0.875000000000000
  0.428571428571429  0.714285714285714  0.000000000000000
  0.428571428571429  0.714285714285714  0.125000000000000
  0.428571428571429  0.714285714285714  0.250000000000000
  0.428571428571429  0.714285714285714  0.375000000000000
  0.428571428571429  0.714285714285714  0.500000000000000
  0.428571428571429  0.714285714285714  0.625000000000000
  0.428571428571429  0.714285714285714  0.750000000000000
  0.428571428571429  0.714285714285714  0.875000000000000
  0.428571428571429  0.857142857142857  0.000000000000000
  0.428571428571429  0.857142857142857  0.125000000000000
  0.428571428571429  0.857142857142857  0.250000000000000
  0.428571428571429  0.857142857142857  0.375000000000000
  0.428571428571429  0.857142857142857  0.500000000000000
  0.428571428571429  0.857142857142857  0.625000000000000
  0.428571428571429  0.857142857142857  0.750000000000000
  0.428571428571429  0.857142857142857  0.875000000000000
  0.571428571428571  0.000000000000000  0.000000000000000
  0.571428571428571  0.000000000000000  0.125000000000000
  0.571428571428571  0.000000000000000  0.250000000000000
  0.571428571428571  0.000000000000000  0.375000000000000
  0.571428571428571  0.000000000000000  0.500000000000000
  0.571428571428571  0.000000000000000  0.625000000000000
  0.571428571428571  0.000000000000000  0.750000000000000
  0.571428571428571  0.000000000000000  0.875000000000000
  0.571428571428571  0.142857142857143  0.000000000000000
  0.571428571428571  0.142857142857143  0.125000000000000
  0.571428571428571  0.142857142857143  0.250000000000000
  0.571428571428571  0.142857142857143  0.375000000000000
  0.571428571428571  0.142857142857143  0.500000000000000
  0.571428571428571  0.142857142857143  0.625000000000000
  0.571428571428571  0.142857142857143  0.750000000000000
  0.571428571428571  0.142857142857143  0.875000000000000
  0.571428571428571  0.285714285714286  0.000000000000000
  0.571428571428571  0.285714285714286  0.125000000000000
  0.571428571428571  0.285714285714286  0.250000000000000
  0.571428571428571  0.285714285714286  0.375000000000000
  0.571428571428571  0.285714285714286  0.500000000000000
  0.571428571428571  0.285714285714286  0.625000000000000
  0.571428571428571  0.285714285714286  0.750000000000000
  0.571428571428571  0.285714285714286  0.875000000000000
  0.571428571428571  0.428571428571429  0.000000000000000
  0.571428571428571  0.428571428571429  0.125000000000000
  0.571428571428571  0.428571428571429  0.250000000000000
  0.571428571428571  0.428571428571429  0.375000000000000
  0.571428571428571  0.428571428571429  0.500000000000000
  0.571428571428571  0.428571428571429  0.625000000000000
  0.571428571428571  0.428571428571429  0.750000000000000
  0.571428571428571  0.428571428571429  0.875000000000000
  0.571428571428571  0.571428571428571  0.000000000000000
  0.571428571428571  0.571428571428571  0.125000000000000
  0.571428571428571  0.571428571428571  0.250000000000000
  0.571428571428571  0.571428571428571  0.375000000000000
  0.571428571428571  0.571428571428571  0.500000000000000
  0.571428571428571  0.571428571428571  0.625000000000000
  0.571428571428571  0.571428571428571  0.750000000000000
  0.571428571428571  0.571428571428571  0.875000000000000
  0.571428571428571  0.714285714285714  0.000000000000000
  0.571428571428571  0.714285714285714  0.125000000000000
  0.571428571428571  0.714285714285714  0.250000000000000
  0.571428571428571  0.714285714285714  0.375000000000000
  0.571428571428571  0.714285714285714  0.500000000000000
  0.571428571428571  0.714285714285714  0.625000000000000
  0.571428571428571  0.714285714285714  0.750000000000000
  0.571428571428571  0.714285714285714  0.875000000000000
  0.571428571428571  0.857142857142857  0.000000000000000
  0.571428571428571  0.857142857142857  0.125000000000000
  0.571428571428571  0.857142857142857  0.250000000000000
  0.571428571428571  0.857142857142857  0.375000000000000
  0.571428571428571  0.857142857142857  0.500000000000000
  0.571428571428571  0.857142857142857  0.625000000000000
  0.571428571428571  0.857142857142857  0.750000000000000
  0.571428571428571  0.857142857142857  0.875000000000000
  0.714285714285714  0.000000000000000  0.000000000000000
  0.714285714285714  0.000000000000000  0.125000000000000
  0.714285714285714  0.000000000000000  0.250000000000000
  0.714285714285714  0.000000000000000  0.375000000000000
  0.714285714285714  0.000000000000000  0.500000000000000
  0.714285714285714  0.000000000000000  0.625000000000000
  0.714285714285714  0.000000000000000  0.750000000000000
  0.714285714285714  0.000000000000000  0.875000000000000
  0.714285714285714  0.142857142857143  0.000000000000000
  0.714285714285714  0.142857142857143  0.125000000000000
  0.714285714285714  0.142857142857143  0.250000000000000
  0.714285714285714  0.142857142857143  0.375000000000000
  0.714285714285714  0.142857142857143  0.500000000000000
  0.714285714285714  0.142857142857143  0.625000000000000
  0.714285714285714  0.142857142857143  0.750000000000000
  0.714285714285714  0.142857142857143  0.875000000000000
  0.714285714285714  0.285714285714286  0.000000000000000
  0.714285714285714  0.285714285714286  0.125000000000000
  0.714285714285714  0.285714285714286  0.250000000000000
  0.714285714285714  0.285714285714286  0.375000000000000
  0.714285714285714  0.285714285714286  0.500000000000000
  0.714285714285714  0.285714285714286  0.625000000000000
  0.714285714285714  0.285714285714286  0.750000000000000
  0.714285714285714  0.285714285714286  0.875000000000000
  0.714285714285714  0.428571428571429  0.000000000000000
  0.714285714285714  0.428571428571429  0.125000000000000
  0.714285714285714  0.428571428571429  0.250000000000000
  0.714285714285714  0.428571428571429  0.375000000000000
  0.714285714285714  0.428571428571429  0.500000000000000
  0.714285714285714  0.428571428571429  0.625000000000000
  0.714285714285714  0.428571428571429  0.750000000000000
  0.714285714285714  0.428571428571429  0.875000000000000
  0.714285714285714  0.571428571428571  0.000000000000000
  0.714285714285714  0.571428571428571  0.125000000000000
  0.714285714285714  0.571428571428571  0.250000000000000
  0.714285714285714  0.571428571428571  0.375000000000000
  0.714285714285714  0.571428571428571  0.500000000000000
  0.714285714285714  0.571428571428571  0.625000000000000
  0.714285714285714  0.571428571428571  0.750000000000000
  0.714285714285714  0.571428571428571  0.875000000000000
  0.714285714285714  0.714285714285714  0.000000000000000
  0.714285714285714  0.714285714285714  0.125000000000000
  0.714285714285714  0.714285714285714  0.250000000000000
  0.714285714285714  0.714285714285714  0.375000000000000
  0.714285714285714  0.714285714285714  0.500000000000000
  0.714285714285714  0.714285714285714  0.625000000000000
  0.714285714285714  0.714285714285714  0.750000000000000
  0.714285714285714  0.714285714285714  0.875000000000000
  0.714285714285714  0.857142857142857  0.000000000000000
  0.714285714285714  0.857142857142857  0.125000000000000
  0.714285714285714  0.857142857142857  0.250000000000000
  0.714285714285714  0.857142857142857  0.375000000000000
  0.714285714285714  0.857142857142857  0.500000000000000
  0.714285714285714  0.857142857142857  0.625000000000000
  0.714285714285714  0.857142857142857  0.750000000000000
  0.714285714285714  0.857142857142857  0.875000000000000
  0.857142857142857  0.000000000000000  0.000000000000000
  0.857142857142857  0.000000000000000  0.125000000000000
  0.857142857142857  0.000000000000000  0.250000000000000
  0.857142857142857  0.000000000000000  0.375000000000000
  0.857142857142857  0.000000000000000  0.500000000000000
  0.857142857142857  0.000000000000000  0.625000000000000
  0.857142857142857  0.000000000000000  0.750000000000000
  0.857142857142857  0.000000000000000  0.875000000000000
  0.857142857142857  0.142857142857143  0.000000000000000
  0.857142857142857  0.142857142857143  0.125000000000000
  0.857142857142857  0.142857142857143  0.250000000000000
  0.857142857142857  0.142857142857143  0.375000000000000
  0.857142857142857  0.142857142857143  0.500000000000000
  0.857142857142857  0.142857142857143  0.625000000000000
  0.857142857142857  0.142857142857143  0.750000000000000
  0.857142857142857  0.142857142857143  0.875000000000000
  0.857142857142857  0.285714285714286  0.000000000000000
  0.857142857142857  0.285714285714286  0.125000000000000
  0.857142857142857  0.285714285714286  0.250000000000000
  0.857142857142857  0.285714285714286  0.375000000000000
  0.857142857142857  0.285714285714286  0.500000000000000
  0.857142857142857  0.285714285714286  0.625000000000000
  0.857142857142857  0.285714285714286  0.750000000000000
  0.857142857142857  0.285714285714286  0.875000000000000
  0.857142857142857  0.428571428571429  0.000000000000000
  0.857142857142857  0.428571428571429  0.125000000000000
  0.857142857142857  0.428571428571429  0.250000000000000
  0.857142857142857  0.428571428571429  0.375000000000000
  0.857142857142857  0.428571428571429  0.500000000000000
  0.857142857142857  0.428571428571429  0.625000000000000
  0.857142857142857  0.428571428571429  0.750000000000000
  0.857142857142857  0.428571428571429  0.875000000000000
  0.857142857142857  0.571428571428571  0.000000000000000
  0.857142857142857  0.571428571428571  0.125000000000000
  0.857142857142857  0.571428571428571  0.250000000000000
  0.857142857142857  0.571428571428571  0.375000000000000
  0.857142857142857  0.571428571428571  0.500000000000000
  0.857142857142857  0.571428571428571  0.625000000000000
  0.857142857142857  0.571428571428571  0.750000000000000
  0.857142857142857  0.571428571428571  0.875000000000000
  0.857142857142857  0.714285714285714  0.000000000000000
  0.857142857142857  0.714285714285714  0.125000000000000
  0.857142857142857  0.714285714285714  0.250000000000000
  0.857142857142857  0.714285714285714  0.375000000000000
  0.857142857142857  0.714285714285714  0.500000000000000
  0.857142857142857  0.714285714285714  0.625000000000000
  0.857142857142857  0.714285714285714  0.750000000000000
  0.857142857142857  0.714285714285714  0.875000000000000
  0.857142857142857  0.857142857142857  0.000000000000000
  0.857142857142857  0.857142857142857  0.125000000000000
  0.857142857142857  0.857142857142857  0.250000000000000
  0.857142857142857  0.857142857142857  0.375000000000000
  0.857142857142857  0.857142857142857  0.500000000000000
  0.857142857142857  0.857142857142857  0.625000000000000
  0.857142857142857  0.857142857142857  0.750000000000000
  0.857142857142857  0.857142857142857  0.875000000000000
end kpoints
